c n orig vars 156
p cnf 158 1411
1 2 -157 0
3 4 -157 0
5 6 -157 0
7 8 -157 0
9 10 -157 0
11 12 -157 0
13 14 -157 0
15 16 -157 0
17 18 -157 0
19 20 -157 0
21 22 -157 0
23 24 -157 0
-25 -36 -158 0
-26 -47 -158 0
-27 -58 -158 0
-28 -69 -158 0
-29 -80 -158 0
-30 -91 -158 0
-31 -102 -158 0
-32 -113 -158 0
-33 -124 -158 0
-34 -135 -158 0
-35 -146 -158 0
-37 -48 -158 0
-38 -59 -158 0
-39 -70 -158 0
-40 -81 -158 0
-41 -92 -158 0
-42 -103 -158 0
-43 -114 -158 0
-44 -125 -158 0
-45 -136 -158 0
-46 -147 -158 0
-49 -60 -158 0
-50 -71 -158 0
-51 -82 -158 0
-52 -93 -158 0
-53 -104 -158 0
-54 -115 -158 0
-55 -126 -158 0
-56 -137 -158 0
-57 -148 -158 0
-61 -72 -158 0
-62 -83 -158 0
-63 -94 -158 0
-64 -105 -158 0
-65 -116 -158 0
-66 -127 -158 0
-67 -138 -158 0
-68 -149 -158 0
-73 -84 -158 0
-74 -95 -158 0
-75 -106 -158 0
-76 -117 -158 0
-77 -128 -158 0
-78 -139 -158 0
-79 -150 -158 0
-85 -96 -158 0
-86 -107 -158 0
-87 -118 -158 0
-88 -129 -158 0
-89 -140 -158 0
-90 -151 -158 0
-97 -108 -158 0
-98 -119 -158 0
-99 -130 -158 0
-100 -141 -158 0
-101 -152 -158 0
-109 -120 -158 0
-110 -131 -158 0
-111 -142 -158 0
-112 -153 -158 0
-121 -132 -158 0
-122 -143 -158 0
-123 -154 -158 0
-133 -144 -158 0
-134 -155 -158 0
-145 -156 -158 0
-25 -37 26 -158 0
-25 -38 27 -158 0
-25 -39 28 -158 0
-25 -40 29 -158 0
-25 -41 30 -158 0
-25 -42 31 -158 0
-25 -43 32 -158 0
-25 -44 33 -158 0
-25 -45 34 -158 0
-25 -46 35 -158 0
-26 -48 25 -158 0
-26 -49 27 -158 0
-26 -50 28 -158 0
-26 -51 29 -158 0
-26 -52 30 -158 0
-26 -53 31 -158 0
-26 -54 32 -158 0
-26 -55 33 -158 0
-26 -56 34 -158 0
-26 -57 35 -158 0
-27 -59 25 -158 0
-27 -60 26 -158 0
-27 -61 28 -158 0
-27 -62 29 -158 0
-27 -63 30 -158 0
-27 -64 31 -158 0
-27 -65 32 -158 0
-27 -66 33 -158 0
-27 -67 34 -158 0
-27 -68 35 -158 0
-28 -70 25 -158 0
-28 -71 26 -158 0
-28 -72 27 -158 0
-28 -73 29 -158 0
-28 -74 30 -158 0
-28 -75 31 -158 0
-28 -76 32 -158 0
-28 -77 33 -158 0
-28 -78 34 -158 0
-28 -79 35 -158 0
-29 -81 25 -158 0
-29 -82 26 -158 0
-29 -83 27 -158 0
-29 -84 28 -158 0
-29 -85 30 -158 0
-29 -86 31 -158 0
-29 -87 32 -158 0
-29 -88 33 -158 0
-29 -89 34 -158 0
-29 -90 35 -158 0
-30 -92 25 -158 0
-30 -93 26 -158 0
-30 -94 27 -158 0
-30 -95 28 -158 0
-30 -96 29 -158 0
-30 -97 31 -158 0
-30 -98 32 -158 0
-30 -99 33 -158 0
-30 -100 34 -158 0
-30 -101 35 -158 0
-31 -103 25 -158 0
-31 -104 26 -158 0
-31 -105 27 -158 0
-31 -106 28 -158 0
-31 -107 29 -158 0
-31 -108 30 -158 0
-31 -109 32 -158 0
-31 -110 33 -158 0
-31 -111 34 -158 0
-31 -112 35 -158 0
-32 -114 25 -158 0
-32 -115 26 -158 0
-32 -116 27 -158 0
-32 -117 28 -158 0
-32 -118 29 -158 0
-32 -119 30 -158 0
-32 -120 31 -158 0
-32 -121 33 -158 0
-32 -122 34 -158 0
-32 -123 35 -158 0
-33 -125 25 -158 0
-33 -126 26 -158 0
-33 -127 27 -158 0
-33 -128 28 -158 0
-33 -129 29 -158 0
-33 -130 30 -158 0
-33 -131 31 -158 0
-33 -132 32 -158 0
-33 -133 34 -158 0
-33 -134 35 -158 0
-34 -136 25 -158 0
-34 -137 26 -158 0
-34 -138 27 -158 0
-34 -139 28 -158 0
-34 -140 29 -158 0
-34 -141 30 -158 0
-34 -142 31 -158 0
-34 -143 32 -158 0
-34 -144 33 -158 0
-34 -145 35 -158 0
-35 -147 25 -158 0
-35 -148 26 -158 0
-35 -149 27 -158 0
-35 -150 28 -158 0
-35 -151 29 -158 0
-35 -152 30 -158 0
-35 -153 31 -158 0
-35 -154 32 -158 0
-35 -155 33 -158 0
-35 -156 34 -158 0
-36 -26 37 -158 0
-36 -27 38 -158 0
-36 -28 39 -158 0
-36 -29 40 -158 0
-36 -30 41 -158 0
-36 -31 42 -158 0
-36 -32 43 -158 0
-36 -33 44 -158 0
-36 -34 45 -158 0
-36 -35 46 -158 0
-37 -47 36 -158 0
-37 -49 38 -158 0
-37 -50 39 -158 0
-37 -51 40 -158 0
-37 -52 41 -158 0
-37 -53 42 -158 0
-37 -54 43 -158 0
-37 -55 44 -158 0
-37 -56 45 -158 0
-37 -57 46 -158 0
-38 -58 36 -158 0
-38 -60 37 -158 0
-38 -61 39 -158 0
-38 -62 40 -158 0
-38 -63 41 -158 0
-38 -64 42 -158 0
-38 -65 43 -158 0
-38 -66 44 -158 0
-38 -67 45 -158 0
-38 -68 46 -158 0
-39 -69 36 -158 0
-39 -71 37 -158 0
-39 -72 38 -158 0
-39 -73 40 -158 0
-39 -74 41 -158 0
-39 -75 42 -158 0
-39 -76 43 -158 0
-39 -77 44 -158 0
-39 -78 45 -158 0
-39 -79 46 -158 0
-40 -80 36 -158 0
-40 -82 37 -158 0
-40 -83 38 -158 0
-40 -84 39 -158 0
-40 -85 41 -158 0
-40 -86 42 -158 0
-40 -87 43 -158 0
-40 -88 44 -158 0
-40 -89 45 -158 0
-40 -90 46 -158 0
-41 -91 36 -158 0
-41 -93 37 -158 0
-41 -94 38 -158 0
-41 -95 39 -158 0
-41 -96 40 -158 0
-41 -97 42 -158 0
-41 -98 43 -158 0
-41 -99 44 -158 0
-41 -100 45 -158 0
-41 -101 46 -158 0
-42 -102 36 -158 0
-42 -104 37 -158 0
-42 -105 38 -158 0
-42 -106 39 -158 0
-42 -107 40 -158 0
-42 -108 41 -158 0
-42 -109 43 -158 0
-42 -110 44 -158 0
-42 -111 45 -158 0
-42 -112 46 -158 0
-43 -113 36 -158 0
-43 -115 37 -158 0
-43 -116 38 -158 0
-43 -117 39 -158 0
-43 -118 40 -158 0
-43 -119 41 -158 0
-43 -120 42 -158 0
-43 -121 44 -158 0
-43 -122 45 -158 0
-43 -123 46 -158 0
-44 -124 36 -158 0
-44 -126 37 -158 0
-44 -127 38 -158 0
-44 -128 39 -158 0
-44 -129 40 -158 0
-44 -130 41 -158 0
-44 -131 42 -158 0
-44 -132 43 -158 0
-44 -133 45 -158 0
-44 -134 46 -158 0
-45 -135 36 -158 0
-45 -137 37 -158 0
-45 -138 38 -158 0
-45 -139 39 -158 0
-45 -140 40 -158 0
-45 -141 41 -158 0
-45 -142 42 -158 0
-45 -143 43 -158 0
-45 -144 44 -158 0
-45 -145 46 -158 0
-46 -146 36 -158 0
-46 -148 37 -158 0
-46 -149 38 -158 0
-46 -150 39 -158 0
-46 -151 40 -158 0
-46 -152 41 -158 0
-46 -153 42 -158 0
-46 -154 43 -158 0
-46 -155 44 -158 0
-46 -156 45 -158 0
-47 -25 48 -158 0
-47 -27 49 -158 0
-47 -28 50 -158 0
-47 -29 51 -158 0
-47 -30 52 -158 0
-47 -31 53 -158 0
-47 -32 54 -158 0
-47 -33 55 -158 0
-47 -34 56 -158 0
-47 -35 57 -158 0
-48 -36 47 -158 0
-48 -38 49 -158 0
-48 -39 50 -158 0
-48 -40 51 -158 0
-48 -41 52 -158 0
-48 -42 53 -158 0
-48 -43 54 -158 0
-48 -44 55 -158 0
-48 -45 56 -158 0
-48 -46 57 -158 0
-49 -58 47 -158 0
-49 -59 48 -158 0
-49 -61 50 -158 0
-49 -62 51 -158 0
-49 -63 52 -158 0
-49 -64 53 -158 0
-49 -65 54 -158 0
-49 -66 55 -158 0
-49 -67 56 -158 0
-49 -68 57 -158 0
-50 -69 47 -158 0
-50 -70 48 -158 0
-50 -72 49 -158 0
-50 -73 51 -158 0
-50 -74 52 -158 0
-50 -75 53 -158 0
-50 -76 54 -158 0
-50 -77 55 -158 0
-50 -78 56 -158 0
-50 -79 57 -158 0
-51 -80 47 -158 0
-51 -81 48 -158 0
-51 -83 49 -158 0
-51 -84 50 -158 0
-51 -85 52 -158 0
-51 -86 53 -158 0
-51 -87 54 -158 0
-51 -88 55 -158 0
-51 -89 56 -158 0
-51 -90 57 -158 0
-52 -91 47 -158 0
-52 -92 48 -158 0
-52 -94 49 -158 0
-52 -95 50 -158 0
-52 -96 51 -158 0
-52 -97 53 -158 0
-52 -98 54 -158 0
-52 -99 55 -158 0
-52 -100 56 -158 0
-52 -101 57 -158 0
-53 -102 47 -158 0
-53 -103 48 -158 0
-53 -105 49 -158 0
-53 -106 50 -158 0
-53 -107 51 -158 0
-53 -108 52 -158 0
-53 -109 54 -158 0
-53 -110 55 -158 0
-53 -111 56 -158 0
-53 -112 57 -158 0
-54 -113 47 -158 0
-54 -114 48 -158 0
-54 -116 49 -158 0
-54 -117 50 -158 0
-54 -118 51 -158 0
-54 -119 52 -158 0
-54 -120 53 -158 0
-54 -121 55 -158 0
-54 -122 56 -158 0
-54 -123 57 -158 0
-55 -124 47 -158 0
-55 -125 48 -158 0
-55 -127 49 -158 0
-55 -128 50 -158 0
-55 -129 51 -158 0
-55 -130 52 -158 0
-55 -131 53 -158 0
-55 -132 54 -158 0
-55 -133 56 -158 0
-55 -134 57 -158 0
-56 -135 47 -158 0
-56 -136 48 -158 0
-56 -138 49 -158 0
-56 -139 50 -158 0
-56 -140 51 -158 0
-56 -141 52 -158 0
-56 -142 53 -158 0
-56 -143 54 -158 0
-56 -144 55 -158 0
-56 -145 57 -158 0
-57 -146 47 -158 0
-57 -147 48 -158 0
-57 -149 49 -158 0
-57 -150 50 -158 0
-57 -151 51 -158 0
-57 -152 52 -158 0
-57 -153 53 -158 0
-57 -154 54 -158 0
-57 -155 55 -158 0
-57 -156 56 -158 0
-58 -25 59 -158 0
-58 -26 60 -158 0
-58 -28 61 -158 0
-58 -29 62 -158 0
-58 -30 63 -158 0
-58 -31 64 -158 0
-58 -32 65 -158 0
-58 -33 66 -158 0
-58 -34 67 -158 0
-58 -35 68 -158 0
-59 -36 58 -158 0
-59 -37 60 -158 0
-59 -39 61 -158 0
-59 -40 62 -158 0
-59 -41 63 -158 0
-59 -42 64 -158 0
-59 -43 65 -158 0
-59 -44 66 -158 0
-59 -45 67 -158 0
-59 -46 68 -158 0
-60 -47 58 -158 0
-60 -48 59 -158 0
-60 -50 61 -158 0
-60 -51 62 -158 0
-60 -52 63 -158 0
-60 -53 64 -158 0
-60 -54 65 -158 0
-60 -55 66 -158 0
-60 -56 67 -158 0
-60 -57 68 -158 0
-61 -69 58 -158 0
-61 -70 59 -158 0
-61 -71 60 -158 0
-61 -73 62 -158 0
-61 -74 63 -158 0
-61 -75 64 -158 0
-61 -76 65 -158 0
-61 -77 66 -158 0
-61 -78 67 -158 0
-61 -79 68 -158 0
-62 -80 58 -158 0
-62 -81 59 -158 0
-62 -82 60 -158 0
-62 -84 61 -158 0
-62 -85 63 -158 0
-62 -86 64 -158 0
-62 -87 65 -158 0
-62 -88 66 -158 0
-62 -89 67 -158 0
-62 -90 68 -158 0
-63 -91 58 -158 0
-63 -92 59 -158 0
-63 -93 60 -158 0
-63 -95 61 -158 0
-63 -96 62 -158 0
-63 -97 64 -158 0
-63 -98 65 -158 0
-63 -99 66 -158 0
-63 -100 67 -158 0
-63 -101 68 -158 0
-64 -102 58 -158 0
-64 -103 59 -158 0
-64 -104 60 -158 0
-64 -106 61 -158 0
-64 -107 62 -158 0
-64 -108 63 -158 0
-64 -109 65 -158 0
-64 -110 66 -158 0
-64 -111 67 -158 0
-64 -112 68 -158 0
-65 -113 58 -158 0
-65 -114 59 -158 0
-65 -115 60 -158 0
-65 -117 61 -158 0
-65 -118 62 -158 0
-65 -119 63 -158 0
-65 -120 64 -158 0
-65 -121 66 -158 0
-65 -122 67 -158 0
-65 -123 68 -158 0
-66 -124 58 -158 0
-66 -125 59 -158 0
-66 -126 60 -158 0
-66 -128 61 -158 0
-66 -129 62 -158 0
-66 -130 63 -158 0
-66 -131 64 -158 0
-66 -132 65 -158 0
-66 -133 67 -158 0
-66 -134 68 -158 0
-67 -135 58 -158 0
-67 -136 59 -158 0
-67 -137 60 -158 0
-67 -139 61 -158 0
-67 -140 62 -158 0
-67 -141 63 -158 0
-67 -142 64 -158 0
-67 -143 65 -158 0
-67 -144 66 -158 0
-67 -145 68 -158 0
-68 -146 58 -158 0
-68 -147 59 -158 0
-68 -148 60 -158 0
-68 -150 61 -158 0
-68 -151 62 -158 0
-68 -152 63 -158 0
-68 -153 64 -158 0
-68 -154 65 -158 0
-68 -155 66 -158 0
-68 -156 67 -158 0
-69 -25 70 -158 0
-69 -26 71 -158 0
-69 -27 72 -158 0
-69 -29 73 -158 0
-69 -30 74 -158 0
-69 -31 75 -158 0
-69 -32 76 -158 0
-69 -33 77 -158 0
-69 -34 78 -158 0
-69 -35 79 -158 0
-70 -36 69 -158 0
-70 -37 71 -158 0
-70 -38 72 -158 0
-70 -40 73 -158 0
-70 -41 74 -158 0
-70 -42 75 -158 0
-70 -43 76 -158 0
-70 -44 77 -158 0
-70 -45 78 -158 0
-70 -46 79 -158 0
-71 -47 69 -158 0
-71 -48 70 -158 0
-71 -49 72 -158 0
-71 -51 73 -158 0
-71 -52 74 -158 0
-71 -53 75 -158 0
-71 -54 76 -158 0
-71 -55 77 -158 0
-71 -56 78 -158 0
-71 -57 79 -158 0
-72 -58 69 -158 0
-72 -59 70 -158 0
-72 -60 71 -158 0
-72 -62 73 -158 0
-72 -63 74 -158 0
-72 -64 75 -158 0
-72 -65 76 -158 0
-72 -66 77 -158 0
-72 -67 78 -158 0
-72 -68 79 -158 0
-73 -80 69 -158 0
-73 -81 70 -158 0
-73 -82 71 -158 0
-73 -83 72 -158 0
-73 -85 74 -158 0
-73 -86 75 -158 0
-73 -87 76 -158 0
-73 -88 77 -158 0
-73 -89 78 -158 0
-73 -90 79 -158 0
-74 -91 69 -158 0
-74 -92 70 -158 0
-74 -93 71 -158 0
-74 -94 72 -158 0
-74 -96 73 -158 0
-74 -97 75 -158 0
-74 -98 76 -158 0
-74 -99 77 -158 0
-74 -100 78 -158 0
-74 -101 79 -158 0
-75 -102 69 -158 0
-75 -103 70 -158 0
-75 -104 71 -158 0
-75 -105 72 -158 0
-75 -107 73 -158 0
-75 -108 74 -158 0
-75 -109 76 -158 0
-75 -110 77 -158 0
-75 -111 78 -158 0
-75 -112 79 -158 0
-76 -113 69 -158 0
-76 -114 70 -158 0
-76 -115 71 -158 0
-76 -116 72 -158 0
-76 -118 73 -158 0
-76 -119 74 -158 0
-76 -120 75 -158 0
-76 -121 77 -158 0
-76 -122 78 -158 0
-76 -123 79 -158 0
-77 -124 69 -158 0
-77 -125 70 -158 0
-77 -126 71 -158 0
-77 -127 72 -158 0
-77 -129 73 -158 0
-77 -130 74 -158 0
-77 -131 75 -158 0
-77 -132 76 -158 0
-77 -133 78 -158 0
-77 -134 79 -158 0
-78 -135 69 -158 0
-78 -136 70 -158 0
-78 -137 71 -158 0
-78 -138 72 -158 0
-78 -140 73 -158 0
-78 -141 74 -158 0
-78 -142 75 -158 0
-78 -143 76 -158 0
-78 -144 77 -158 0
-78 -145 79 -158 0
-79 -146 69 -158 0
-79 -147 70 -158 0
-79 -148 71 -158 0
-79 -149 72 -158 0
-79 -151 73 -158 0
-79 -152 74 -158 0
-79 -153 75 -158 0
-79 -154 76 -158 0
-79 -155 77 -158 0
-79 -156 78 -158 0
-80 -25 81 -158 0
-80 -26 82 -158 0
-80 -27 83 -158 0
-80 -28 84 -158 0
-80 -30 85 -158 0
-80 -31 86 -158 0
-80 -32 87 -158 0
-80 -33 88 -158 0
-80 -34 89 -158 0
-80 -35 90 -158 0
-81 -36 80 -158 0
-81 -37 82 -158 0
-81 -38 83 -158 0
-81 -39 84 -158 0
-81 -41 85 -158 0
-81 -42 86 -158 0
-81 -43 87 -158 0
-81 -44 88 -158 0
-81 -45 89 -158 0
-81 -46 90 -158 0
-82 -47 80 -158 0
-82 -48 81 -158 0
-82 -49 83 -158 0
-82 -50 84 -158 0
-82 -52 85 -158 0
-82 -53 86 -158 0
-82 -54 87 -158 0
-82 -55 88 -158 0
-82 -56 89 -158 0
-82 -57 90 -158 0
-83 -58 80 -158 0
-83 -59 81 -158 0
-83 -60 82 -158 0
-83 -61 84 -158 0
-83 -63 85 -158 0
-83 -64 86 -158 0
-83 -65 87 -158 0
-83 -66 88 -158 0
-83 -67 89 -158 0
-83 -68 90 -158 0
-84 -69 80 -158 0
-84 -70 81 -158 0
-84 -71 82 -158 0
-84 -72 83 -158 0
-84 -74 85 -158 0
-84 -75 86 -158 0
-84 -76 87 -158 0
-84 -77 88 -158 0
-84 -78 89 -158 0
-84 -79 90 -158 0
-85 -91 80 -158 0
-85 -92 81 -158 0
-85 -93 82 -158 0
-85 -94 83 -158 0
-85 -95 84 -158 0
-85 -97 86 -158 0
-85 -98 87 -158 0
-85 -99 88 -158 0
-85 -100 89 -158 0
-85 -101 90 -158 0
-86 -102 80 -158 0
-86 -103 81 -158 0
-86 -104 82 -158 0
-86 -105 83 -158 0
-86 -106 84 -158 0
-86 -108 85 -158 0
-86 -109 87 -158 0
-86 -110 88 -158 0
-86 -111 89 -158 0
-86 -112 90 -158 0
-87 -113 80 -158 0
-87 -114 81 -158 0
-87 -115 82 -158 0
-87 -116 83 -158 0
-87 -117 84 -158 0
-87 -119 85 -158 0
-87 -120 86 -158 0
-87 -121 88 -158 0
-87 -122 89 -158 0
-87 -123 90 -158 0
-88 -124 80 -158 0
-88 -125 81 -158 0
-88 -126 82 -158 0
-88 -127 83 -158 0
-88 -128 84 -158 0
-88 -130 85 -158 0
-88 -131 86 -158 0
-88 -132 87 -158 0
-88 -133 89 -158 0
-88 -134 90 -158 0
-89 -135 80 -158 0
-89 -136 81 -158 0
-89 -137 82 -158 0
-89 -138 83 -158 0
-89 -139 84 -158 0
-89 -141 85 -158 0
-89 -142 86 -158 0
-89 -143 87 -158 0
-89 -144 88 -158 0
-89 -145 90 -158 0
-90 -146 80 -158 0
-90 -147 81 -158 0
-90 -148 82 -158 0
-90 -149 83 -158 0
-90 -150 84 -158 0
-90 -152 85 -158 0
-90 -153 86 -158 0
-90 -154 87 -158 0
-90 -155 88 -158 0
-90 -156 89 -158 0
-91 -25 92 -158 0
-91 -26 93 -158 0
-91 -27 94 -158 0
-91 -28 95 -158 0
-91 -29 96 -158 0
-91 -31 97 -158 0
-91 -32 98 -158 0
-91 -33 99 -158 0
-91 -34 100 -158 0
-91 -35 101 -158 0
-92 -36 91 -158 0
-92 -37 93 -158 0
-92 -38 94 -158 0
-92 -39 95 -158 0
-92 -40 96 -158 0
-92 -42 97 -158 0
-92 -43 98 -158 0
-92 -44 99 -158 0
-92 -45 100 -158 0
-92 -46 101 -158 0
-93 -47 91 -158 0
-93 -48 92 -158 0
-93 -49 94 -158 0
-93 -50 95 -158 0
-93 -51 96 -158 0
-93 -53 97 -158 0
-93 -54 98 -158 0
-93 -55 99 -158 0
-93 -56 100 -158 0
-93 -57 101 -158 0
-94 -58 91 -158 0
-94 -59 92 -158 0
-94 -60 93 -158 0
-94 -61 95 -158 0
-94 -62 96 -158 0
-94 -64 97 -158 0
-94 -65 98 -158 0
-94 -66 99 -158 0
-94 -67 100 -158 0
-94 -68 101 -158 0
-95 -69 91 -158 0
-95 -70 92 -158 0
-95 -71 93 -158 0
-95 -72 94 -158 0
-95 -73 96 -158 0
-95 -75 97 -158 0
-95 -76 98 -158 0
-95 -77 99 -158 0
-95 -78 100 -158 0
-95 -79 101 -158 0
-96 -80 91 -158 0
-96 -81 92 -158 0
-96 -82 93 -158 0
-96 -83 94 -158 0
-96 -84 95 -158 0
-96 -86 97 -158 0
-96 -87 98 -158 0
-96 -88 99 -158 0
-96 -89 100 -158 0
-96 -90 101 -158 0
-97 -102 91 -158 0
-97 -103 92 -158 0
-97 -104 93 -158 0
-97 -105 94 -158 0
-97 -106 95 -158 0
-97 -107 96 -158 0
-97 -109 98 -158 0
-97 -110 99 -158 0
-97 -111 100 -158 0
-97 -112 101 -158 0
-98 -113 91 -158 0
-98 -114 92 -158 0
-98 -115 93 -158 0
-98 -116 94 -158 0
-98 -117 95 -158 0
-98 -118 96 -158 0
-98 -120 97 -158 0
-98 -121 99 -158 0
-98 -122 100 -158 0
-98 -123 101 -158 0
-99 -124 91 -158 0
-99 -125 92 -158 0
-99 -126 93 -158 0
-99 -127 94 -158 0
-99 -128 95 -158 0
-99 -129 96 -158 0
-99 -131 97 -158 0
-99 -132 98 -158 0
-99 -133 100 -158 0
-99 -134 101 -158 0
-100 -135 91 -158 0
-100 -136 92 -158 0
-100 -137 93 -158 0
-100 -138 94 -158 0
-100 -139 95 -158 0
-100 -140 96 -158 0
-100 -142 97 -158 0
-100 -143 98 -158 0
-100 -144 99 -158 0
-100 -145 101 -158 0
-101 -146 91 -158 0
-101 -147 92 -158 0
-101 -148 93 -158 0
-101 -149 94 -158 0
-101 -150 95 -158 0
-101 -151 96 -158 0
-101 -153 97 -158 0
-101 -154 98 -158 0
-101 -155 99 -158 0
-101 -156 100 -158 0
-102 -25 103 -158 0
-102 -26 104 -158 0
-102 -27 105 -158 0
-102 -28 106 -158 0
-102 -29 107 -158 0
-102 -30 108 -158 0
-102 -32 109 -158 0
-102 -33 110 -158 0
-102 -34 111 -158 0
-102 -35 112 -158 0
-103 -36 102 -158 0
-103 -37 104 -158 0
-103 -38 105 -158 0
-103 -39 106 -158 0
-103 -40 107 -158 0
-103 -41 108 -158 0
-103 -43 109 -158 0
-103 -44 110 -158 0
-103 -45 111 -158 0
-103 -46 112 -158 0
-104 -47 102 -158 0
-104 -48 103 -158 0
-104 -49 105 -158 0
-104 -50 106 -158 0
-104 -51 107 -158 0
-104 -52 108 -158 0
-104 -54 109 -158 0
-104 -55 110 -158 0
-104 -56 111 -158 0
-104 -57 112 -158 0
-105 -58 102 -158 0
-105 -59 103 -158 0
-105 -60 104 -158 0
-105 -61 106 -158 0
-105 -62 107 -158 0
-105 -63 108 -158 0
-105 -65 109 -158 0
-105 -66 110 -158 0
-105 -67 111 -158 0
-105 -68 112 -158 0
-106 -69 102 -158 0
-106 -70 103 -158 0
-106 -71 104 -158 0
-106 -72 105 -158 0
-106 -73 107 -158 0
-106 -74 108 -158 0
-106 -76 109 -158 0
-106 -77 110 -158 0
-106 -78 111 -158 0
-106 -79 112 -158 0
-107 -80 102 -158 0
-107 -81 103 -158 0
-107 -82 104 -158 0
-107 -83 105 -158 0
-107 -84 106 -158 0
-107 -85 108 -158 0
-107 -87 109 -158 0
-107 -88 110 -158 0
-107 -89 111 -158 0
-107 -90 112 -158 0
-108 -91 102 -158 0
-108 -92 103 -158 0
-108 -93 104 -158 0
-108 -94 105 -158 0
-108 -95 106 -158 0
-108 -96 107 -158 0
-108 -98 109 -158 0
-108 -99 110 -158 0
-108 -100 111 -158 0
-108 -101 112 -158 0
-109 -113 102 -158 0
-109 -114 103 -158 0
-109 -115 104 -158 0
-109 -116 105 -158 0
-109 -117 106 -158 0
-109 -118 107 -158 0
-109 -119 108 -158 0
-109 -121 110 -158 0
-109 -122 111 -158 0
-109 -123 112 -158 0
-110 -124 102 -158 0
-110 -125 103 -158 0
-110 -126 104 -158 0
-110 -127 105 -158 0
-110 -128 106 -158 0
-110 -129 107 -158 0
-110 -130 108 -158 0
-110 -132 109 -158 0
-110 -133 111 -158 0
-110 -134 112 -158 0
-111 -135 102 -158 0
-111 -136 103 -158 0
-111 -137 104 -158 0
-111 -138 105 -158 0
-111 -139 106 -158 0
-111 -140 107 -158 0
-111 -141 108 -158 0
-111 -143 109 -158 0
-111 -144 110 -158 0
-111 -145 112 -158 0
-112 -146 102 -158 0
-112 -147 103 -158 0
-112 -148 104 -158 0
-112 -149 105 -158 0
-112 -150 106 -158 0
-112 -151 107 -158 0
-112 -152 108 -158 0
-112 -154 109 -158 0
-112 -155 110 -158 0
-112 -156 111 -158 0
-113 -25 114 -158 0
-113 -26 115 -158 0
-113 -27 116 -158 0
-113 -28 117 -158 0
-113 -29 118 -158 0
-113 -30 119 -158 0
-113 -31 120 -158 0
-113 -33 121 -158 0
-113 -34 122 -158 0
-113 -35 123 -158 0
-114 -36 113 -158 0
-114 -37 115 -158 0
-114 -38 116 -158 0
-114 -39 117 -158 0
-114 -40 118 -158 0
-114 -41 119 -158 0
-114 -42 120 -158 0
-114 -44 121 -158 0
-114 -45 122 -158 0
-114 -46 123 -158 0
-115 -47 113 -158 0
-115 -48 114 -158 0
-115 -49 116 -158 0
-115 -50 117 -158 0
-115 -51 118 -158 0
-115 -52 119 -158 0
-115 -53 120 -158 0
-115 -55 121 -158 0
-115 -56 122 -158 0
-115 -57 123 -158 0
-116 -58 113 -158 0
-116 -59 114 -158 0
-116 -60 115 -158 0
-116 -61 117 -158 0
-116 -62 118 -158 0
-116 -63 119 -158 0
-116 -64 120 -158 0
-116 -66 121 -158 0
-116 -67 122 -158 0
-116 -68 123 -158 0
-117 -69 113 -158 0
-117 -70 114 -158 0
-117 -71 115 -158 0
-117 -72 116 -158 0
-117 -73 118 -158 0
-117 -74 119 -158 0
-117 -75 120 -158 0
-117 -77 121 -158 0
-117 -78 122 -158 0
-117 -79 123 -158 0
-118 -80 113 -158 0
-118 -81 114 -158 0
-118 -82 115 -158 0
-118 -83 116 -158 0
-118 -84 117 -158 0
-118 -85 119 -158 0
-118 -86 120 -158 0
-118 -88 121 -158 0
-118 -89 122 -158 0
-118 -90 123 -158 0
-119 -91 113 -158 0
-119 -92 114 -158 0
-119 -93 115 -158 0
-119 -94 116 -158 0
-119 -95 117 -158 0
-119 -96 118 -158 0
-119 -97 120 -158 0
-119 -99 121 -158 0
-119 -100 122 -158 0
-119 -101 123 -158 0
-120 -102 113 -158 0
-120 -103 114 -158 0
-120 -104 115 -158 0
-120 -105 116 -158 0
-120 -106 117 -158 0
-120 -107 118 -158 0
-120 -108 119 -158 0
-120 -110 121 -158 0
-120 -111 122 -158 0
-120 -112 123 -158 0
-121 -124 113 -158 0
-121 -125 114 -158 0
-121 -126 115 -158 0
-121 -127 116 -158 0
-121 -128 117 -158 0
-121 -129 118 -158 0
-121 -130 119 -158 0
-121 -131 120 -158 0
-121 -133 122 -158 0
-121 -134 123 -158 0
-122 -135 113 -158 0
-122 -136 114 -158 0
-122 -137 115 -158 0
-122 -138 116 -158 0
-122 -139 117 -158 0
-122 -140 118 -158 0
-122 -141 119 -158 0
-122 -142 120 -158 0
-122 -144 121 -158 0
-122 -145 123 -158 0
-123 -146 113 -158 0
-123 -147 114 -158 0
-123 -148 115 -158 0
-123 -149 116 -158 0
-123 -150 117 -158 0
-123 -151 118 -158 0
-123 -152 119 -158 0
-123 -153 120 -158 0
-123 -155 121 -158 0
-123 -156 122 -158 0
-124 -25 125 -158 0
-124 -26 126 -158 0
-124 -27 127 -158 0
-124 -28 128 -158 0
-124 -29 129 -158 0
-124 -30 130 -158 0
-124 -31 131 -158 0
-124 -32 132 -158 0
-124 -34 133 -158 0
-124 -35 134 -158 0
-125 -36 124 -158 0
-125 -37 126 -158 0
-125 -38 127 -158 0
-125 -39 128 -158 0
-125 -40 129 -158 0
-125 -41 130 -158 0
-125 -42 131 -158 0
-125 -43 132 -158 0
-125 -45 133 -158 0
-125 -46 134 -158 0
-126 -47 124 -158 0
-126 -48 125 -158 0
-126 -49 127 -158 0
-126 -50 128 -158 0
-126 -51 129 -158 0
-126 -52 130 -158 0
-126 -53 131 -158 0
-126 -54 132 -158 0
-126 -56 133 -158 0
-126 -57 134 -158 0
-127 -58 124 -158 0
-127 -59 125 -158 0
-127 -60 126 -158 0
-127 -61 128 -158 0
-127 -62 129 -158 0
-127 -63 130 -158 0
-127 -64 131 -158 0
-127 -65 132 -158 0
-127 -67 133 -158 0
-127 -68 134 -158 0
-128 -69 124 -158 0
-128 -70 125 -158 0
-128 -71 126 -158 0
-128 -72 127 -158 0
-128 -73 129 -158 0
-128 -74 130 -158 0
-128 -75 131 -158 0
-128 -76 132 -158 0
-128 -78 133 -158 0
-128 -79 134 -158 0
-129 -80 124 -158 0
-129 -81 125 -158 0
-129 -82 126 -158 0
-129 -83 127 -158 0
-129 -84 128 -158 0
-129 -85 130 -158 0
-129 -86 131 -158 0
-129 -87 132 -158 0
-129 -89 133 -158 0
-129 -90 134 -158 0
-130 -91 124 -158 0
-130 -92 125 -158 0
-130 -93 126 -158 0
-130 -94 127 -158 0
-130 -95 128 -158 0
-130 -96 129 -158 0
-130 -97 131 -158 0
-130 -98 132 -158 0
-130 -100 133 -158 0
-130 -101 134 -158 0
-131 -102 124 -158 0
-131 -103 125 -158 0
-131 -104 126 -158 0
-131 -105 127 -158 0
-131 -106 128 -158 0
-131 -107 129 -158 0
-131 -108 130 -158 0
-131 -109 132 -158 0
-131 -111 133 -158 0
-131 -112 134 -158 0
-132 -113 124 -158 0
-132 -114 125 -158 0
-132 -115 126 -158 0
-132 -116 127 -158 0
-132 -117 128 -158 0
-132 -118 129 -158 0
-132 -119 130 -158 0
-132 -120 131 -158 0
-132 -122 133 -158 0
-132 -123 134 -158 0
-133 -135 124 -158 0
-133 -136 125 -158 0
-133 -137 126 -158 0
-133 -138 127 -158 0
-133 -139 128 -158 0
-133 -140 129 -158 0
-133 -141 130 -158 0
-133 -142 131 -158 0
-133 -143 132 -158 0
-133 -145 134 -158 0
-134 -146 124 -158 0
-134 -147 125 -158 0
-134 -148 126 -158 0
-134 -149 127 -158 0
-134 -150 128 -158 0
-134 -151 129 -158 0
-134 -152 130 -158 0
-134 -153 131 -158 0
-134 -154 132 -158 0
-134 -156 133 -158 0
-135 -25 136 -158 0
-135 -26 137 -158 0
-135 -27 138 -158 0
-135 -28 139 -158 0
-135 -29 140 -158 0
-135 -30 141 -158 0
-135 -31 142 -158 0
-135 -32 143 -158 0
-135 -33 144 -158 0
-135 -35 145 -158 0
-136 -36 135 -158 0
-136 -37 137 -158 0
-136 -38 138 -158 0
-136 -39 139 -158 0
-136 -40 140 -158 0
-136 -41 141 -158 0
-136 -42 142 -158 0
-136 -43 143 -158 0
-136 -44 144 -158 0
-136 -46 145 -158 0
-137 -47 135 -158 0
-137 -48 136 -158 0
-137 -49 138 -158 0
-137 -50 139 -158 0
-137 -51 140 -158 0
-137 -52 141 -158 0
-137 -53 142 -158 0
-137 -54 143 -158 0
-137 -55 144 -158 0
-137 -57 145 -158 0
-138 -58 135 -158 0
-138 -59 136 -158 0
-138 -60 137 -158 0
-138 -61 139 -158 0
-138 -62 140 -158 0
-138 -63 141 -158 0
-138 -64 142 -158 0
-138 -65 143 -158 0
-138 -66 144 -158 0
-138 -68 145 -158 0
-139 -69 135 -158 0
-139 -70 136 -158 0
-139 -71 137 -158 0
-139 -72 138 -158 0
-139 -73 140 -158 0
-139 -74 141 -158 0
-139 -75 142 -158 0
-139 -76 143 -158 0
-139 -77 144 -158 0
-139 -79 145 -158 0
-140 -80 135 -158 0
-140 -81 136 -158 0
-140 -82 137 -158 0
-140 -83 138 -158 0
-140 -84 139 -158 0
-140 -85 141 -158 0
-140 -86 142 -158 0
-140 -87 143 -158 0
-140 -88 144 -158 0
-140 -90 145 -158 0
-141 -91 135 -158 0
-141 -92 136 -158 0
-141 -93 137 -158 0
-141 -94 138 -158 0
-141 -95 139 -158 0
-141 -96 140 -158 0
-141 -97 142 -158 0
-141 -98 143 -158 0
-141 -99 144 -158 0
-141 -101 145 -158 0
-142 -102 135 -158 0
-142 -103 136 -158 0
-142 -104 137 -158 0
-142 -105 138 -158 0
-142 -106 139 -158 0
-142 -107 140 -158 0
-142 -108 141 -158 0
-142 -109 143 -158 0
-142 -110 144 -158 0
-142 -112 145 -158 0
-143 -113 135 -158 0
-143 -114 136 -158 0
-143 -115 137 -158 0
-143 -116 138 -158 0
-143 -117 139 -158 0
-143 -118 140 -158 0
-143 -119 141 -158 0
-143 -120 142 -158 0
-143 -121 144 -158 0
-143 -123 145 -158 0
-144 -124 135 -158 0
-144 -125 136 -158 0
-144 -126 137 -158 0
-144 -127 138 -158 0
-144 -128 139 -158 0
-144 -129 140 -158 0
-144 -130 141 -158 0
-144 -131 142 -158 0
-144 -132 143 -158 0
-144 -134 145 -158 0
-145 -146 135 -158 0
-145 -147 136 -158 0
-145 -148 137 -158 0
-145 -149 138 -158 0
-145 -150 139 -158 0
-145 -151 140 -158 0
-145 -152 141 -158 0
-145 -153 142 -158 0
-145 -154 143 -158 0
-145 -155 144 -158 0
-146 -25 147 -158 0
-146 -26 148 -158 0
-146 -27 149 -158 0
-146 -28 150 -158 0
-146 -29 151 -158 0
-146 -30 152 -158 0
-146 -31 153 -158 0
-146 -32 154 -158 0
-146 -33 155 -158 0
-146 -34 156 -158 0
-147 -36 146 -158 0
-147 -37 148 -158 0
-147 -38 149 -158 0
-147 -39 150 -158 0
-147 -40 151 -158 0
-147 -41 152 -158 0
-147 -42 153 -158 0
-147 -43 154 -158 0
-147 -44 155 -158 0
-147 -45 156 -158 0
-148 -47 146 -158 0
-148 -48 147 -158 0
-148 -49 149 -158 0
-148 -50 150 -158 0
-148 -51 151 -158 0
-148 -52 152 -158 0
-148 -53 153 -158 0
-148 -54 154 -158 0
-148 -55 155 -158 0
-148 -56 156 -158 0
-149 -58 146 -158 0
-149 -59 147 -158 0
-149 -60 148 -158 0
-149 -61 150 -158 0
-149 -62 151 -158 0
-149 -63 152 -158 0
-149 -64 153 -158 0
-149 -65 154 -158 0
-149 -66 155 -158 0
-149 -67 156 -158 0
-150 -69 146 -158 0
-150 -70 147 -158 0
-150 -71 148 -158 0
-150 -72 149 -158 0
-150 -73 151 -158 0
-150 -74 152 -158 0
-150 -75 153 -158 0
-150 -76 154 -158 0
-150 -77 155 -158 0
-150 -78 156 -158 0
-151 -80 146 -158 0
-151 -81 147 -158 0
-151 -82 148 -158 0
-151 -83 149 -158 0
-151 -84 150 -158 0
-151 -85 152 -158 0
-151 -86 153 -158 0
-151 -87 154 -158 0
-151 -88 155 -158 0
-151 -89 156 -158 0
-152 -91 146 -158 0
-152 -92 147 -158 0
-152 -93 148 -158 0
-152 -94 149 -158 0
-152 -95 150 -158 0
-152 -96 151 -158 0
-152 -97 153 -158 0
-152 -98 154 -158 0
-152 -99 155 -158 0
-152 -100 156 -158 0
-153 -102 146 -158 0
-153 -103 147 -158 0
-153 -104 148 -158 0
-153 -105 149 -158 0
-153 -106 150 -158 0
-153 -107 151 -158 0
-153 -108 152 -158 0
-153 -109 154 -158 0
-153 -110 155 -158 0
-153 -111 156 -158 0
-154 -113 146 -158 0
-154 -114 147 -158 0
-154 -115 148 -158 0
-154 -116 149 -158 0
-154 -117 150 -158 0
-154 -118 151 -158 0
-154 -119 152 -158 0
-154 -120 153 -158 0
-154 -121 155 -158 0
-154 -122 156 -158 0
-155 -124 146 -158 0
-155 -125 147 -158 0
-155 -126 148 -158 0
-155 -127 149 -158 0
-155 -128 150 -158 0
-155 -129 151 -158 0
-155 -130 152 -158 0
-155 -131 153 -158 0
-155 -132 154 -158 0
-155 -133 156 -158 0
-156 -135 146 -158 0
-156 -136 147 -158 0
-156 -137 148 -158 0
-156 -138 149 -158 0
-156 -139 150 -158 0
-156 -140 151 -158 0
-156 -141 152 -158 0
-156 -142 153 -158 0
-156 -143 154 -158 0
-156 -144 155 -158 0
36 47 58 69 80 91 102 113 124 135 146 -158 0
25 48 59 70 81 92 103 114 125 136 147 -158 0
26 37 60 71 82 93 104 115 126 137 148 -158 0
27 38 49 72 83 94 105 116 127 138 149 -158 0
28 39 50 61 84 95 106 117 128 139 150 -158 0
29 40 51 62 73 96 107 118 129 140 151 -158 0
30 41 52 63 74 85 108 119 130 141 152 -158 0
31 42 53 64 75 86 97 120 131 142 153 -158 0
32 43 54 65 76 87 98 109 132 143 154 -158 0
33 44 55 66 77 88 99 110 121 144 155 -158 0
34 45 56 67 78 89 100 111 122 133 156 -158 0
35 46 57 68 79 90 101 112 123 134 145 -158 0
157 158 0
